c Reduced graph for GEOM90b generated by Cyril Grelier
p edge 69 680
e 1 2
e 1 3
e 1 4
e 1 5
e 1 8
e 1 11
e 1 12
e 1 21
e 1 22
e 1 23
e 1 24
e 1 25
e 1 29
e 1 30
e 1 31
e 1 33
e 1 35
e 1 36
e 1 39
e 1 44
e 1 48
e 1 52
e 1 53
e 1 54
e 1 56
e 1 57
e 1 59
e 1 60
e 1 61
e 1 64
e 1 65
e 2 3
e 2 4
e 2 5
e 2 7
e 2 8
e 2 9
e 2 11
e 2 23
e 2 24
e 2 25
e 2 26
e 2 27
e 2 28
e 2 29
e 2 31
e 2 34
e 2 41
e 2 52
e 2 53
e 2 54
e 2 55
e 2 56
e 2 58
e 2 59
e 2 61
e 2 62
e 2 63
e 2 66
e 3 4
e 3 5
e 3 7
e 3 9
e 3 11
e 3 14
e 3 24
e 3 25
e 3 27
e 3 29
e 3 34
e 3 35
e 3 36
e 3 41
e 3 42
e 3 52
e 3 53
e 3 54
e 3 55
e 3 58
e 3 61
e 3 62
e 3 63
e 3 65
e 3 66
e 3 67
e 4 5
e 4 6
e 4 7
e 4 8
e 4 9
e 4 12
e 4 23
e 4 24
e 4 25
e 4 26
e 4 27
e 4 28
e 4 30
e 4 31
e 4 33
e 4 34
e 4 52
e 4 53
e 4 54
e 4 56
e 4 57
e 4 59
e 4 60
e 4 62
e 5 11
e 5 14
e 5 16
e 5 24
e 5 25
e 5 27
e 5 29
e 5 34
e 5 35
e 5 36
e 5 42
e 5 52
e 5 53
e 5 54
e 5 55
e 5 58
e 5 61
e 5 62
e 5 63
e 5 65
e 5 66
e 5 67
e 5 69
e 6 7
e 6 9
e 6 10
e 6 13
e 6 17
e 6 18
e 6 20
e 6 23
e 6 24
e 6 25
e 6 26
e 6 28
e 6 32
e 6 37
e 6 38
e 6 40
e 6 43
e 6 45
e 6 46
e 6 47
e 6 49
e 6 50
e 6 54
e 6 68
e 7 9
e 7 10
e 7 13
e 7 19
e 7 23
e 7 24
e 7 25
e 7 26
e 7 27
e 7 28
e 7 31
e 7 32
e 7 34
e 7 37
e 7 41
e 7 52
e 7 53
e 7 54
e 7 56
e 7 59
e 7 62
e 8 9
e 8 12
e 8 15
e 8 21
e 8 22
e 8 23
e 8 24
e 8 25
e 8 30
e 8 31
e 8 33
e 8 39
e 8 44
e 8 48
e 8 52
e 8 53
e 8 54
e 8 56
e 8 57
e 8 59
e 8 60
e 8 64
e 9 10
e 9 12
e 9 15
e 9 23
e 9 24
e 9 25
e 9 26
e 9 28
e 9 31
e 9 32
e 9 37
e 9 40
e 9 52
e 9 53
e 9 54
e 9 56
e 9 57
e 9 59
e 10 13
e 10 17
e 10 18
e 10 23
e 10 26
e 10 28
e 10 32
e 10 37
e 10 38
e 10 40
e 10 43
e 10 45
e 10 46
e 10 47
e 10 49
e 10 50
e 10 51
e 10 68
e 11 14
e 11 16
e 11 27
e 11 29
e 11 35
e 11 36
e 11 39
e 11 42
e 11 52
e 11 53
e 11 55
e 11 58
e 11 61
e 11 63
e 11 65
e 11 67
e 11 69
e 12 15
e 12 22
e 12 23
e 12 24
e 12 25
e 12 30
e 12 31
e 12 33
e 12 40
e 12 53
e 12 54
e 12 56
e 12 57
e 12 59
e 12 60
e 12 64
e 13 19
e 13 26
e 13 28
e 13 32
e 13 34
e 13 37
e 13 38
e 13 41
e 13 43
e 13 46
e 13 50
e 13 51
e 13 62
e 13 68
e 14 16
e 14 27
e 14 29
e 14 35
e 14 36
e 14 42
e 14 55
e 14 58
e 14 61
e 14 63
e 14 65
e 14 67
e 14 69
e 15 18
e 15 20
e 15 23
e 15 24
e 15 25
e 15 31
e 15 40
e 15 45
e 15 49
e 15 56
e 15 57
e 15 59
e 16 27
e 16 29
e 16 36
e 16 42
e 16 55
e 16 58
e 16 61
e 16 63
e 16 65
e 16 66
e 16 67
e 16 69
e 17 18
e 17 20
e 17 32
e 17 37
e 17 38
e 17 40
e 17 43
e 17 45
e 17 46
e 17 47
e 17 49
e 17 68
e 18 20
e 18 32
e 18 38
e 18 40
e 18 43
e 18 45
e 18 47
e 18 49
e 18 68
e 19 26
e 19 27
e 19 34
e 19 41
e 19 51
e 19 55
e 19 58
e 19 62
e 19 66
e 19 67
e 20 23
e 20 32
e 20 40
e 20 45
e 20 47
e 20 49
e 20 56
e 21 22
e 21 30
e 21 33
e 21 39
e 21 44
e 21 48
e 21 57
e 21 60
e 21 64
e 22 30
e 22 31
e 22 33
e 22 57
e 22 60
e 22 64
e 23 24
e 23 25
e 23 26
e 23 28
e 23 31
e 23 32
e 23 33
e 23 37
e 23 40
e 23 52
e 23 53
e 23 54
e 23 56
e 23 57
e 23 59
e 24 25
e 24 28
e 24 30
e 24 31
e 24 33
e 24 52
e 24 53
e 24 54
e 24 56
e 24 57
e 24 59
e 24 60
e 24 64
e 25 28
e 25 30
e 25 31
e 25 33
e 25 52
e 25 53
e 25 54
e 25 56
e 25 57
e 25 59
e 25 60
e 25 64
e 26 27
e 26 28
e 26 32
e 26 34
e 26 37
e 26 38
e 26 41
e 26 46
e 26 50
e 26 51
e 26 52
e 26 54
e 26 62
e 26 66
e 26 68
e 27 29
e 27 34
e 27 41
e 27 42
e 27 52
e 27 54
e 27 55
e 27 58
e 27 61
e 27 62
e 27 63
e 27 66
e 27 67
e 27 69
e 28 32
e 28 34
e 28 37
e 28 38
e 28 41
e 28 43
e 28 46
e 28 50
e 28 51
e 28 54
e 28 62
e 28 68
e 29 30
e 29 35
e 29 36
e 29 39
e 29 42
e 29 44
e 29 48
e 29 52
e 29 53
e 29 55
e 29 58
e 29 61
e 29 63
e 29 65
e 29 69
e 30 31
e 30 33
e 30 35
e 30 39
e 30 44
e 30 48
e 30 52
e 30 53
e 30 54
e 30 56
e 30 57
e 30 59
e 30 60
e 30 64
e 31 33
e 31 52
e 31 53
e 31 54
e 31 56
e 31 57
e 31 59
e 31 60
e 31 64
e 32 37
e 32 38
e 32 40
e 32 43
e 32 45
e 32 46
e 32 47
e 32 49
e 32 50
e 32 68
e 33 39
e 33 44
e 33 48
e 33 53
e 33 54
e 33 56
e 33 57
e 33 59
e 33 60
e 33 64
e 34 41
e 34 51
e 34 52
e 34 54
e 34 55
e 34 58
e 34 62
e 34 63
e 34 66
e 34 67
e 35 36
e 35 39
e 35 44
e 35 48
e 35 52
e 35 53
e 35 55
e 35 58
e 35 60
e 35 61
e 35 63
e 35 65
e 35 69
e 36 39
e 36 42
e 36 44
e 36 48
e 36 52
e 36 55
e 36 58
e 36 61
e 36 63
e 36 65
e 36 69
e 37 38
e 37 43
e 37 46
e 37 50
e 37 51
e 37 62
e 37 68
e 38 40
e 38 43
e 38 45
e 38 46
e 38 47
e 38 49
e 38 50
e 38 68
e 39 44
e 39 48
e 39 53
e 39 57
e 39 60
e 39 61
e 39 64
e 39 65
e 40 45
e 40 47
e 40 49
e 40 56
e 40 59
e 41 51
e 41 52
e 41 55
e 41 58
e 41 62
e 41 66
e 41 67
e 42 55
e 42 58
e 42 61
e 42 63
e 42 65
e 42 66
e 42 67
e 42 69
e 43 45
e 43 46
e 43 47
e 43 49
e 43 50
e 43 68
e 44 48
e 44 53
e 44 60
e 44 61
e 44 64
e 44 65
e 45 46
e 45 47
e 45 49
e 45 68
e 46 47
e 46 50
e 46 68
e 47 49
e 47 68
e 48 57
e 48 60
e 48 64
e 50 51
e 50 68
e 51 62
e 51 66
e 52 53
e 52 54
e 52 55
e 52 56
e 52 57
e 52 58
e 52 59
e 52 60
e 52 61
e 52 62
e 52 63
e 52 65
e 52 66
e 53 54
e 53 55
e 53 56
e 53 57
e 53 59
e 53 60
e 53 61
e 53 64
e 54 56
e 54 57
e 54 59
e 54 60
e 54 62
e 55 58
e 55 61
e 55 62
e 55 63
e 55 65
e 55 66
e 55 67
e 55 69
e 56 57
e 56 59
e 56 60
e 56 64
e 57 59
e 57 60
e 57 64
e 58 61
e 58 62
e 58 63
e 58 65
e 58 66
e 58 67
e 58 69
e 59 60
e 59 64
e 60 64
e 61 63
e 61 65
e 61 69
e 62 63
e 62 66
e 62 67
e 63 65
e 63 66
e 63 67
e 63 69
e 65 69
e 66 67
e 67 69
